# Solution for model metamorphosis_srl_ilp
# Objective value = 1.4224385518740075e+01
Z_654_2_0 0
Z_654_2_1 0
Z_654_2_2 0
Z_654_2_3 0
Z_654_2_4 1
Z_654_1_0 0
Z_654_1_1 0
Z_654_1_2 0
Z_654_1_3 0
Z_654_1_4 1
Z_654_3_0 0
Z_654_3_1 0
Z_654_3_2 0
Z_654_3_3 0
Z_654_3_4 1
Z_654_4_0 0
Z_654_4_1 0
Z_654_4_2 0
Z_654_4_3 0
Z_654_4_4 1
Z_654_0_0 0
Z_654_0_1 0
Z_654_0_2 0
Z_654_0_3 0
Z_654_0_4 1
Z_83_0_0 0
Z_83_0_1 0
Z_83_0_2 1
Z_83_0_3 0
Z_83_0_4 0
Z_83_1_0 0
Z_83_1_1 0
Z_83_1_2 0
Z_83_1_3 0
Z_83_1_4 1
Z_670_2_0 0
Z_670_2_1 0
Z_670_2_2 0
Z_670_2_3 1
Z_670_2_4 0
Z_670_3_0 0
Z_670_3_1 0
Z_670_3_2 0
Z_670_3_3 0
Z_670_3_4 1
Z_670_4_0 0
Z_670_4_1 0
Z_670_4_2 0
Z_670_4_3 0
Z_670_4_4 1
Z_670_0_0 0
Z_670_0_1 0
Z_670_0_2 0
Z_670_0_3 0
Z_670_0_4 1
Z_670_1_0 0
Z_670_1_1 0
Z_670_1_2 0
Z_670_1_3 0
Z_670_1_4 1
Z_601_0_0 0
Z_601_0_1 0
Z_601_0_2 1
Z_601_0_3 0
Z_601_0_4 0
Z_562_0_0 0
Z_562_0_1 0
Z_562_0_2 0
Z_562_0_3 1
Z_562_0_4 0
Z_390_0_0 0
Z_390_0_1 0
Z_390_0_2 1
Z_390_0_3 0
Z_390_0_4 0
Z_311_0_0 0
Z_311_0_1 0
Z_311_0_2 0
Z_311_0_3 0
Z_311_0_4 1
Z_311_1_0 0
Z_311_1_1 0
Z_311_1_2 0
Z_311_1_3 0
Z_311_1_4 1
Z_311_4_0 0
Z_311_4_1 0
Z_311_4_2 0
Z_311_4_3 0
Z_311_4_4 1
Z_311_3_0 0
Z_311_3_1 0
Z_311_3_2 0
Z_311_3_3 0
Z_311_3_4 1
Z_311_2_0 0
Z_311_2_1 0
Z_311_2_2 0
Z_311_2_3 0
Z_311_2_4 1
Z_307_0_0 0
Z_307_0_1 0
Z_307_0_2 0
Z_307_0_3 1
Z_307_0_4 0
Z_155_0_0 0
Z_155_0_1 0
Z_155_0_2 0
Z_155_0_3 0
Z_155_0_4 1
